7  134 5 255 1 0 0 0
8  134 5 255 1 0 0 0
9  134 5 255 1 0 0 0
11 134 5 255 1 0 0 0

7  60 5 255 1 0 0 0
8 147 5 255 1 0 0 0
9  60 5 255 1 0 0 0
11 60 5 255 1 0 0 0

7  61 5 255 1 0 0 0
8  61 5 255 1 0 0 0
9  61 5 255 1 0 0 0
11 61 5 255 1 0 0 0

0 32 5 255 1 0 0 0
0 33 5 255 1 0 0 0
0 34 5 255 1 0 0 0

15 31 0 255 1 0 0 0
15 32 0 255 1 0 0 0
15 33 0 255 1 0 0 0
15 34 0 255 1 0 0 0
15 35 0 255 1 0 0 0
15 36 0 255 1 0 0 0
end
